* ENCODING=ISO-8859-1
NAME          CPLEX
ROWS
 N  obj1    
 G  c1      
 G  c2      
 G  c3      
 G  c4      
 G  c5      
 G  c6      
 G  c7      
 G  c8      
 G  c9      
 G  c10     
 G  c11     
 G  c12     
 G  c13     
 G  c14     
 G  c15     
 G  c16     
 G  c17     
 G  c18     
 G  c19     
 G  c20     
 G  c21     
 G  c22     
 G  c23     
 G  c24     
 G  c25     
 G  c26     
 G  c27     
 G  c28     
 G  c29     
 G  c30     
COLUMNS
    MARK0000  'MARKER'                 'INTORG'
    x1        obj1                            1
    x1        c3                            797
    x1        c15                           530
    x1        c23                           736
    x1        c24                           440
    x2        obj1                            1
    x2        c7                            280
    x2        c12                           698
    x2        c17                           365
    x2        c29                           142
    x3        obj1                            1
    x3        c5                            750
    x3        c12                           190
    x3        c15                           944
    x4        obj1                            1
    x4        c6                            591
    x4        c12                           805
    x4        c14                           907
    x4        c19                           679
    x4        c21                           560
    x4        c30                           537
    x5        obj1                            1
    x5        c19                           423
    x6        obj1                            1
    x6        c8                            324
    x6        c17                           330
    x6        c19                           156
    x6        c21                           901
    x6        c27                           981
    x6        c28                           127
    x7        obj1                            1
    x7        c10                           510
    x7        c20                           863
    x7        c26                           894
    x8        obj1                            1
    x8        c3                            703
    x8        c8                            999
    x8        c13                           225
    x9        obj1                            1
    x9        c5                            828
    x9        c11                           542
    x9        c18                           856
    x9        c19                           449
    x9        c22                           661
    x9        c27                           939
    x9        c28                           877
    x9        c29                           215
    x10       obj1                            1
    x11       obj1                            1
    x11       c1                            484
    x11       c24                           573
    x11       c25                           976
    x12       obj1                            1
    x12       c4                            438
    x12       c30                           318
    x13       obj1                            1
    x13       c18                           298
    x13       c28                           799
    x14       obj1                            1
    x14       c28                           958
    x14       c29                           108
    x15       obj1                            1
    x15       c2                            233
    x15       c18                           660
    x16       obj1                            1
    x16       c28                           685
    x17       obj1                            1
    x17       c6                            329
    x17       c27                           630
    x18       obj1                            1
    x18       c6                            162
    x18       c16                           496
    x19       obj1                            1
    x20       obj1                            1
    x20       c17                           294
    x20       c19                           687
    x20       c23                           490
    x21       obj1                            1
    x21       c15                           909
    x22       obj1                            1
    x22       c8                            211
    x22       c15                           604
    x22       c18                           799
    x22       c25                           360
    x22       c30                           789
    x23       obj1                            1
    x24       obj1                            1
    x24       c1                            936
    x24       c6                            734
    x24       c18                           384
    x24       c27                           609
    x24       c30                           706
    x25       obj1                            1
    x25       c18                           114
    x25       c24                           347
    x26       obj1                            1
    x26       c16                           147
    x26       c18                           114
    x26       c30                           854
    x27       obj1                            1
    x27       c4                            660
    x27       c8                            685
    x27       c19                           316
    x28       obj1                            1
    x28       c13                           183
    x28       c20                           956
    x29       obj1                            1
    x29       c4                            829
    x29       c5                            765
    x29       c16                           475
    x30       obj1                            1
    x30       c4                            145
    x30       c6                            634
    x30       c24                           471
    x31       obj1                            1
    x31       c4                            223
    x31       c14                           488
    x31       c20                           518
    x31       c23                           959
    x31       c25                           257
    x31       c29                           176
    x32       obj1                            1
    x32       c3                            981
    x32       c23                           898
    x33       obj1                            1
    x33       c2                            146
    x33       c20                           164
    x33       c22                           133
    x33       c25                           555
    x34       obj1                            1
    x34       c5                            487
    x34       c6                            313
    x34       c21                           240
    x34       c22                           819
    x34       c27                           485
    x35       obj1                            1
    x35       c3                            172
    x35       c12                           494
    x35       c16                           766
    x35       c29                           816
    x35       c30                           710
    x36       obj1                            1
    x36       c14                           577
    x36       c15                           194
    x36       c21                           912
    x36       c28                           562
    x37       obj1                            1
    x37       c9                            516
    x38       obj1                            1
    x38       c17                           854
    x38       c19                           415
    x38       c23                           622
    x39       obj1                            1
    x39       c1                            583
    x39       c7                            379
    x39       c23                           739
    x39       c27                           284
    x40       obj1                            1
    x40       c10                           909
    x40       c19                           198
    x40       c21                           945
    x40       c29                           265
    x41       obj1                            1
    x41       c7                            908
    x42       obj1                            1
    x42       c11                           612
    x43       obj1                            1
    x43       c4                            602
    x43       c8                            653
    x43       c18                           464
    x43       c23                           846
    x43       c28                           375
    x43       c29                           276
    x44       obj1                            1
    x44       c2                           1000
    x44       c13                           275
    x44       c25                           226
    x44       c26                           717
    x45       obj1                            1
    x45       c1                            756
    x45       c8                            747
    x45       c10                           138
    x45       c23                           115
    x45       c25                           749
    x46       obj1                            1
    x46       c1                            507
    x46       c6                            827
    x46       c15                           890
    x46       c16                           779
    x47       obj1                            1
    x47       c15                           862
    x47       c23                           270
    x48       obj1                            1
    x48       c1                            287
    x48       c4                            550
    x48       c14                           207
    x48       c15                           371
    x49       obj1                            1
    x49       c5                            632
    x49       c8                            126
    x49       c18                           758
    x49       c20                           976
    x50       obj1                            1
    x50       c1                            251
    x50       c11                           267
    x50       c12                           122
    x50       c27                           169
    x51       obj1                            1
    x51       c4                            317
    x51       c9                            589
    x51       c14                           750
    x51       c19                           502
    x51       c21                           870
    x52       obj1                            1
    x52       c5                            581
    x52       c10                           204
    x52       c24                           409
    x52       c27                           947
    x52       c30                           453
    x53       obj1                            1
    x53       c21                           315
    x53       c29                          1000
    x54       obj1                            1
    x54       c9                            196
    x55       obj1                            1
    x55       c3                            409
    x55       c11                           149
    x55       c20                           938
    x55       c22                           129
    x55       c29                           672
    x56       obj1                            1
    x56       c12                           984
    x56       c14                           278
    x56       c16                           695
    x57       obj1                            1
    x57       c1                            178
    x58       obj1                            1
    x58       c3                            680
    x58       c12                           693
    x59       obj1                            1
    x59       c9                            874
    x59       c15                           677
    x59       c25                           563
    x59       c26                           589
    x60       obj1                            1
    x60       c28                           929
    MARK0001  'MARKER'                 'INTEND'
RHS
    rhs       c1                           1991
    rhs       c2                            690
    rhs       c3                           1871
    rhs       c4                           1882
    rhs       c5                           2022
    rhs       c6                           1795
    rhs       c7                            784
    rhs       c8                           1873
    rhs       c9                           1088
    rhs       c10                           881
    rhs       c11                           785
    rhs       c12                          1993
    rhs       c13                           342
    rhs       c14                          1604
    rhs       c15                          2991
    rhs       c16                          1679
    rhs       c17                           922
    rhs       c18                          2224
    rhs       c19                          1913
    rhs       c20                          2208
    rhs       c21                          2372
    rhs       c22                           871
    rhs       c23                          2838
    rhs       c24                          1120
    rhs       c25                          1843
    rhs       c26                          1100
    rhs       c27                          2522
    rhs       c28                          2656
    rhs       c29                          1835
    rhs       c30                          2184
BOUNDS
 LI bnd       x1        0
 LI bnd       x2        0
 LI bnd       x3        0
 LI bnd       x4        0
 LI bnd       x5        0
 LI bnd       x6        0
 LI bnd       x7        0
 LI bnd       x8        0
 LI bnd       x9        0
 LI bnd       x10       0
 LI bnd       x11       0
 LI bnd       x12       0
 LI bnd       x13       0
 LI bnd       x14       0
 LI bnd       x15       0
 LI bnd       x16       0
 LI bnd       x17       0
 LI bnd       x18       0
 LI bnd       x19       0
 LI bnd       x20       0
 LI bnd       x21       0
 LI bnd       x22       0
 LI bnd       x23       0
 LI bnd       x24       0
 LI bnd       x25       0
 LI bnd       x26       0
 LI bnd       x27       0
 LI bnd       x28       0
 LI bnd       x29       0
 LI bnd       x30       0
 LI bnd       x31       0
 LI bnd       x32       0
 LI bnd       x33       0
 LI bnd       x34       0
 LI bnd       x35       0
 LI bnd       x36       0
 LI bnd       x37       0
 LI bnd       x38       0
 LI bnd       x39       0
 LI bnd       x40       0
 LI bnd       x41       0
 LI bnd       x42       0
 LI bnd       x43       0
 LI bnd       x44       0
 LI bnd       x45       0
 LI bnd       x46       0
 LI bnd       x47       0
 LI bnd       x48       0
 LI bnd       x49       0
 LI bnd       x50       0
 LI bnd       x51       0
 LI bnd       x52       0
 LI bnd       x53       0
 LI bnd       x54       0
 LI bnd       x55       0
 LI bnd       x56       0
 LI bnd       x57       0
 LI bnd       x58       0
 LI bnd       x59       0
 LI bnd       x60       0
ENDATA
